p tw 145 155
1 2
2 58
3 14
4 5
5 6
6 7
7 8
8 9
9 10
10 11
11 12
12 13
12 42
13 15
14 25
15 16
16 17
17 18
17 20
18 19
19 20
20 21
21 22
22 23
23 24
24 26
25 36
26 27
27 28
28 29
29 30
30 31
31 32
31 34
32 33
33 40
34 35
35 37
36 47
37 38
38 39
39 40
40 41
41 42
42 43
43 44
44 45
45 46
46 51
47 53
48 49
49 50
50 51
51 52
53 54
54 55
55 56
56 57
57 59
58 69
59 60
60 61
61 62
62 63
63 64
63 92
64 65
65 66
66 67
67 68
67 71
68 70
69 80
70 71
71 72
72 73
73 74
74 75
75 76
76 77
77 78
78 79
79 81
79 83
80 91
81 82
82 87
83 84
84 85
85 86
86 87
87 88
88 89
89 90
90 61
91 102
92 93
93 94
94 95
95 96
96 97
97 98
98 99
99 100
100 101
101 103
102 113
103 104
104 105
105 106
106 107
106 133
107 108
108 109
109 110
110 111
110 114
111 112
112 114
113 124
114 115
115 116
116 117
117 118
118 119
119 120
120 121
121 122
122 123
122 126
123 125
124 135
125 130
126 127
127 128
128 129
129 130
130 131
131 132
132 101
133 134
134 136
135 3
135 14
136 137
137 138
138 139
138 48
139 140
140 141
141 142
142 143
143 144
144 145
145 4
